
  22    4
  10   10   10   10

   0   0   0   0   0   4 2 3 4 11 
   3  10  10  10  10   3 9 8 6 
   3  10  10  10  10   2 7 5 
  10  10  10  10  10   2 7 5 
   4  10  10  10  10   3 10 9 8 
   1  10  10  10  10   2 10 7 
  10  10  10  10  10   4 21 16 15 12 
   4  10  10  10  10   3 21 16 12 
  10  10  10  10  10   3 16 15 12 
   4  10  10  10  10   3 21 16 13 
   6  10  10  10  10   2 15 13 
  10  10  10  10  10   1 13 
   8  10  10  10  10   1 14 
   7  10  10  10  10   4 20 19 18 17 
   3  10  10  10  10   4 20 19 18 17 
   6  10  10  10  10   1 17 
   4  10  10  10  10   1 22
   2  10  10  10  10   1 22
   9  10  10  10  10   1 22
  10  10  10  10  10   1 22
  10  10  10  10  10   1 22
   0   0   0   0   0   0 
